0 2 1 6 4 7 4 8 2 5
2 0 5 1 9 9 9 8 6 1
1 5 0 6 6 4 8 2 5 3
6 1 6 0 9 5 5 8 9 1
4 9 6 9 0 4 6 8 5 6
7 9 4 5 4 0 9 4 2 3
4 9 8 5 6 9 0 7 5 6
8 8 2 8 8 4 7 0 1 4
2 6 5 9 5 2 5 1 0 9
5 1 3 1 6 3 6 4 9 0
